
Gurobi 11.0.1 (win64) logging started Wed May 15 14:42:14 2024

Set parameter LogFile to value "output/solver_log5.txt"
Gurobi Optimizer version 11.0.1 build v11.0.1rc0 (win64 - Windows 11.0 (22631.2))

CPU model: 11th Gen Intel(R) Core(TM) i7-1165G7 @ 2.80GHz, instruction set [SSE2|AVX|AVX2|AVX512]
Thread count: 4 physical cores, 8 logical processors, using up to 8 threads

Optimize a model with 2435 rows, 521 columns and 45789 nonzeros
Model fingerprint: 0x8f8ca764
Variable types: 248 continuous, 273 integer (273 binary)
Coefficient statistics:
  Matrix range     [4e-01, 1e+05]
  Objective range  [1e+00, 1e+02]
  Bounds range     [1e+00, 1e+00]
  RHS range        [1e-02, 1e+05]

User MIP start produced solution with objective 39148.4 (0.01s)
User MIP start produced solution with objective 39785.9 (0.01s)
Loaded user MIP start with objective 39785.9

Presolve removed 191 rows and 152 columns
Presolve time: 0.05s
Presolved: 2244 rows, 369 columns, 43640 nonzeros
Variable types: 235 continuous, 134 integer (130 binary)

Root relaxation: objective 4.513745e+04, 689 iterations, 0.04 seconds (0.09 work units)

    Nodes    |    Current Node    |     Objective Bounds      |     Work
 Expl Unexpl |  Obj  Depth IntInf | Incumbent    BestBd   Gap | It/Node Time

     0     0 45137.4461    0   14 39785.8763 45137.4461  13.5%     -    0s
     0     0 44895.4656    0   13 39785.8763 44895.4656  12.8%     -    0s
     0     0 43035.4633    0   23 39785.8763 43035.4633  8.17%     -    0s
     0     0 42940.1115    0   23 39785.8763 42940.1115  7.93%     -    0s
     0     0 42792.0649    0   22 39785.8763 42792.0649  7.56%     -    0s
     0     0 42581.3061    0   22 39785.8763 42581.3061  7.03%     -    0s
     0     0 42418.4768    0   21 39785.8763 42418.4768  6.62%     -    0s
     0     0 42360.6961    0   22 39785.8763 42360.6961  6.47%     -    0s
     0     0 42360.6961    0   22 39785.8763 42360.6961  6.47%     -    0s
     0     0 42178.3681    0   24 39785.8763 42178.3681  6.01%     -    0s
     0     0 41227.3283    0   23 39785.8763 41227.3283  3.62%     -    0s
     0     0 41227.3283    0   23 39785.8763 41227.3283  3.62%     -    0s
     0     0 41227.3283    0   27 39785.8763 41227.3283  3.62%     -    0s
     0     0 41155.1962    0   27 39785.8763 41155.1962  3.44%     -    0s
     0     0 41155.1962    0   26 39785.8763 41155.1962  3.44%     -    0s
     0     0 41155.1962    0   26 39785.8763 41155.1962  3.44%     -    0s
     0     2 41155.1962    0   26 39785.8763 41155.1962  3.44%     -    0s
*  341   167              45    39787.697085 39794.4190  0.02%  69.3    1s
*  809   192              44    39790.488662 39794.4190  0.01%  29.3    1s

Cutting planes:
  Gomory: 1
  MIR: 22

Explored 1056 nodes (28857 simplex iterations) in 1.93 seconds (3.82 work units)
Thread count was 8 (of 8 available processors)

Solution count 5: 39790.5 39790.5 39787.7 ... 39148.4

Optimal solution found (tolerance 1.00e-04)
Best objective 3.979048866175e+04, best bound 3.979441903469e+04, gap 0.0099%
